DATASET = "thpack5";
INSTANCE = "003";

WIDTH = 233;
HEIGHT = 220;
LENGTH = 587;

NO_OF_SHAPES = 12;
size = [|
  97,81,27 |
  102,78,39 |
  113,46,36 |
  66,50,42 |
  101,30,26 |
  100,56,35 |
  91,50,40 |
  106,61,56 |
  103,63,58 |
  75,57,41 |
  71,68,64 |
  85,67,39 |
|];

verticality = [|
  0,0,1 |
  0,0,1 |
  0,1,1 |
  1,1,1 |
  0,1,1 |
  0,1,1 |
  0,1,1 |
  1,1,1 |
  1,1,1 |
  1,1,1 |
  1,1,1 |
  0,1,1 |
|];

box_count = [
  7,
  12,
  11,
  11,
  9,
  15,
  9,
  13,
  9,
  18,
  6,
  13,
];
